PARAMETER_FILE = /home/jyf/ROS_project/RACER-test/src/RACER-main/swarm_exploration/utils/lkh_mtsp_solver/resource/amtsp2_3.par
PROBLEM_FILE = /home/jyf/ROS_project/RACER-test/src/RACER-main/swarm_exploration/utils/lkh_mtsp_solver/resource/amtsp2_3.atsp
Successes/Runs = 0/1 
Cost.min = -104073, Cost.avg = -104073.00, Cost.max = -104073
Gap.min = -0.0000%, Gap.avg = -0.0000%, Gap.max = -0.0000%
Trials.min = 56, Trials.avg = 56.0, Trials.max = 56
Time.min = 0.00 sec., Time.avg = 0.00 sec., Time.max = 0.00 sec.
Best ATSP solution:
  Cost = 0_-104073

PARAMETER_FILE = /home/jyf/ROS_project/RACER-test/src/RACER-main/swarm_exploration/utils/lkh_mtsp_solver/resource/amtsp2_3.par
PROBLEM_FILE = /home/jyf/ROS_project/RACER-test/src/RACER-main/swarm_exploration/utils/lkh_mtsp_solver/resource/amtsp2_3.atsp
Successes/Runs = 0/1 
Cost.min = -104725, Cost.avg = -104725.00, Cost.max = -104725
Gap.min = -0.0000%, Gap.avg = -0.0000%, Gap.max = -0.0000%
Trials.min = 56, Trials.avg = 56.0, Trials.max = 56
Time.min = 0.00 sec., Time.avg = 0.00 sec., Time.max = 0.00 sec.
Best ATSP solution:
  Cost = 0_-104725

PARAMETER_FILE = /home/jyf/ROS_project/RACER-test/src/RACER-main/swarm_exploration/utils/lkh_mtsp_solver/resource/amtsp_3.par
PROBLEM_FILE = /home/jyf/ROS_project/RACER-test/src/RACER-main/swarm_exploration/utils/lkh_mtsp_solver/resource/amtsp_3.atsp
Successes/Runs = 1/0 
Cost.min = -199149, Cost.avg = -199149.00, Cost.max = -199149
Gap.min = -0.0000%, Gap.avg = -0.0000%, Gap.max = -0.0000%
Trials.min = 56, Trials.avg = 56.0, Trials.max = 56
Time.min = 0.00 sec., Time.avg = 0.00 sec., Time.max = 0.00 sec.
Best ATSP solution:
  Cost = 0_-199149

PARAMETER_FILE = /home/jyf/ROS_project/RACER-test/src/RACER-main/swarm_exploration/utils/lkh_mtsp_solver/resource/amtsp2_3.par
PROBLEM_FILE = /home/jyf/ROS_project/RACER-test/src/RACER-main/swarm_exploration/utils/lkh_mtsp_solver/resource/amtsp2_3.atsp
Successes/Runs = 1/0 
Cost.min = -98601, Cost.avg = -98601.00, Cost.max = -98601
Gap.min = -0.0000%, Gap.avg = -0.0000%, Gap.max = -0.0000%
Trials.min = 56, Trials.avg = 56.0, Trials.max = 56
Time.min = 0.00 sec., Time.avg = 0.00 sec., Time.max = 0.00 sec.
Best ATSP solution:
  Cost = 0_-98601

PARAMETER_FILE = /home/jyf/ROS_project/RACER-test/src/RACER-main/swarm_exploration/utils/lkh_mtsp_solver/resource/amtsp_3.par
PROBLEM_FILE = /home/jyf/ROS_project/RACER-test/src/RACER-main/swarm_exploration/utils/lkh_mtsp_solver/resource/amtsp_3.atsp
Successes/Runs = 1/0 
Cost.min = -199608, Cost.avg = -199608.00, Cost.max = -199608
Gap.min = -0.0000%, Gap.avg = -0.0000%, Gap.max = -0.0000%
Trials.min = 56, Trials.avg = 56.0, Trials.max = 56
Time.min = 0.00 sec., Time.avg = 0.00 sec., Time.max = 0.00 sec.
Best ATSP solution:
  Cost = 0_-199608

PARAMETER_FILE = /home/jyf/ROS_project/RACER-test/src/RACER-main/swarm_exploration/utils/lkh_mtsp_solver/resource/amtsp2_3.par
PROBLEM_FILE = /home/jyf/ROS_project/RACER-test/src/RACER-main/swarm_exploration/utils/lkh_mtsp_solver/resource/amtsp2_3.atsp
Successes/Runs = 1/0 
Cost.min = -99093, Cost.avg = -99093.00, Cost.max = -99093
Gap.min = -0.0000%, Gap.avg = -0.0000%, Gap.max = -0.0000%
Trials.min = 56, Trials.avg = 56.0, Trials.max = 56
Time.min = 0.00 sec., Time.avg = 0.00 sec., Time.max = 0.00 sec.
Best ATSP solution:
  Cost = 0_-99093

PARAMETER_FILE = /home/jyf/ROS_project/RACER-test/src/RACER-main/swarm_exploration/utils/lkh_mtsp_solver/resource/amtsp_3.par
PROBLEM_FILE = /home/jyf/ROS_project/RACER-test/src/RACER-main/swarm_exploration/utils/lkh_mtsp_solver/resource/amtsp_3.atsp
Successes/Runs = 1/0 
Cost.min = -199447, Cost.avg = -199447.00, Cost.max = -199447
Gap.min = -0.0000%, Gap.avg = -0.0000%, Gap.max = -0.0000%
Trials.min = 56, Trials.avg = 56.0, Trials.max = 56
Time.min = 0.00 sec., Time.avg = 0.00 sec., Time.max = 0.00 sec.
Best ATSP solution:
  Cost = 0_-199447

PARAMETER_FILE = /home/jyf/ROS_project/RACER-test/src/RACER-main/swarm_exploration/utils/lkh_mtsp_solver/resource/amtsp2_3.par
PROBLEM_FILE = /home/jyf/ROS_project/RACER-test/src/RACER-main/swarm_exploration/utils/lkh_mtsp_solver/resource/amtsp2_3.atsp
Successes/Runs = 1/0 
Cost.min = -99296, Cost.avg = -99296.00, Cost.max = -99296
Gap.min = -0.0000%, Gap.avg = -0.0000%, Gap.max = -0.0000%
Trials.min = 56, Trials.avg = 56.0, Trials.max = 56
Time.min = 0.00 sec., Time.avg = 0.00 sec., Time.max = 0.00 sec.
Best ATSP solution:
  Cost = 0_-99296

PARAMETER_FILE = /home/jyf/ROS_project/RACER-test/src/RACER-main/swarm_exploration/utils/lkh_mtsp_solver/resource/amtsp_3.par
PROBLEM_FILE = /home/jyf/ROS_project/RACER-test/src/RACER-main/swarm_exploration/utils/lkh_mtsp_solver/resource/amtsp_3.atsp
Successes/Runs = 1/0 
Cost.min = -199534, Cost.avg = -199534.00, Cost.max = -199534
Gap.min = -0.0000%, Gap.avg = -0.0000%, Gap.max = -0.0000%
Trials.min = 56, Trials.avg = 56.0, Trials.max = 56
Time.min = 0.00 sec., Time.avg = 0.00 sec., Time.max = 0.00 sec.
Best ATSP solution:
  Cost = 0_-199534

PARAMETER_FILE = /home/jyf/ROS_project/RACER-test/src/RACER-main/swarm_exploration/utils/lkh_mtsp_solver/resource/amtsp2_3.par
PROBLEM_FILE = /home/jyf/ROS_project/RACER-test/src/RACER-main/swarm_exploration/utils/lkh_mtsp_solver/resource/amtsp2_3.atsp
Successes/Runs = 1/0 
Cost.min = -98779, Cost.avg = -98779.00, Cost.max = -98779
Gap.min = -0.0000%, Gap.avg = -0.0000%, Gap.max = -0.0000%
Trials.min = 56, Trials.avg = 56.0, Trials.max = 56
Time.min = 0.00 sec., Time.avg = 0.00 sec., Time.max = 0.00 sec.
Best ATSP solution:
  Cost = 0_-98779

PARAMETER_FILE = /home/jyf/ROS_project/RACER-test/src/RACER-main/swarm_exploration/utils/lkh_mtsp_solver/resource/amtsp_3.par
PROBLEM_FILE = /home/jyf/ROS_project/RACER-test/src/RACER-main/swarm_exploration/utils/lkh_mtsp_solver/resource/amtsp_3.atsp
Successes/Runs = 1/0 
Cost.min = -199127, Cost.avg = -199127.00, Cost.max = -199127
Gap.min = -0.0000%, Gap.avg = -0.0000%, Gap.max = -0.0000%
Trials.min = 56, Trials.avg = 56.0, Trials.max = 56
Time.min = 0.00 sec., Time.avg = 0.00 sec., Time.max = 0.00 sec.
Best ATSP solution:
  Cost = 0_-199127

PARAMETER_FILE = /home/jyf/ROS_project/RACER-test/src/RACER-main/swarm_exploration/utils/lkh_mtsp_solver/resource/amtsp2_3.par
PROBLEM_FILE = /home/jyf/ROS_project/RACER-test/src/RACER-main/swarm_exploration/utils/lkh_mtsp_solver/resource/amtsp2_3.atsp
Successes/Runs = 1/0 
Cost.min = -98088, Cost.avg = -98088.00, Cost.max = -98088
Gap.min = -0.0000%, Gap.avg = -0.0000%, Gap.max = -0.0000%
Trials.min = 56, Trials.avg = 56.0, Trials.max = 56
Time.min = 0.00 sec., Time.avg = 0.00 sec., Time.max = 0.00 sec.
Best ATSP solution:
  Cost = 0_-98088

PARAMETER_FILE = /home/jyf/ROS_project/RACER-test/src/RACER-main/swarm_exploration/utils/lkh_mtsp_solver/resource/amtsp_3.par
PROBLEM_FILE = /home/jyf/ROS_project/RACER-test/src/RACER-main/swarm_exploration/utils/lkh_mtsp_solver/resource/amtsp_3.atsp
Successes/Runs = 1/0 
Cost.min = -199332, Cost.avg = -199332.00, Cost.max = -199332
Gap.min = -0.0000%, Gap.avg = -0.0000%, Gap.max = -0.0000%
Trials.min = 56, Trials.avg = 56.0, Trials.max = 56
Time.min = 0.00 sec., Time.avg = 0.00 sec., Time.max = 0.00 sec.
Best ATSP solution:
  Cost = 0_-199332

PARAMETER_FILE = /home/jyf/ROS_project/RACER-test/src/RACER-main/swarm_exploration/utils/lkh_mtsp_solver/resource/amtsp2_3.par
PROBLEM_FILE = /home/jyf/ROS_project/RACER-test/src/RACER-main/swarm_exploration/utils/lkh_mtsp_solver/resource/amtsp2_3.atsp
Successes/Runs = 1/0 
Cost.min = -98892, Cost.avg = -98892.00, Cost.max = -98892
Gap.min = -0.0000%, Gap.avg = -0.0000%, Gap.max = -0.0000%
Trials.min = 56, Trials.avg = 56.0, Trials.max = 56
Time.min = 0.00 sec., Time.avg = 0.00 sec., Time.max = 0.00 sec.
Best ATSP solution:
  Cost = 0_-98892

PARAMETER_FILE = /home/jyf/ROS_project/RACER-test/src/RACER-main/swarm_exploration/utils/lkh_mtsp_solver/resource/amtsp_3.par
PROBLEM_FILE = /home/jyf/ROS_project/RACER-test/src/RACER-main/swarm_exploration/utils/lkh_mtsp_solver/resource/amtsp_3.atsp
Successes/Runs = 1/0 
Cost.min = -199212, Cost.avg = -199212.00, Cost.max = -199212
Gap.min = -0.0000%, Gap.avg = -0.0000%, Gap.max = -0.0000%
Trials.min = 56, Trials.avg = 56.0, Trials.max = 56
Time.min = 0.00 sec., Time.avg = 0.00 sec., Time.max = 0.00 sec.
Best ATSP solution:
  Cost = 0_-199212

PARAMETER_FILE = /home/jyf/ROS_project/RACER-test/src/RACER-main/swarm_exploration/utils/lkh_mtsp_solver/resource/amtsp2_3.par
PROBLEM_FILE = /home/jyf/ROS_project/RACER-test/src/RACER-main/swarm_exploration/utils/lkh_mtsp_solver/resource/amtsp2_3.atsp
Successes/Runs = 1/0 
Cost.min = -99395, Cost.avg = -99395.00, Cost.max = -99395
Gap.min = -0.0000%, Gap.avg = -0.0000%, Gap.max = -0.0000%
Trials.min = 56, Trials.avg = 56.0, Trials.max = 56
Time.min = 0.00 sec., Time.avg = 0.00 sec., Time.max = 0.00 sec.
Best ATSP solution:
  Cost = 0_-99395

PARAMETER_FILE = /home/jyf/ROS_project/RACER-test/src/RACER-main/swarm_exploration/utils/lkh_mtsp_solver/resource/amtsp_3.par
PROBLEM_FILE = /home/jyf/ROS_project/RACER-test/src/RACER-main/swarm_exploration/utils/lkh_mtsp_solver/resource/amtsp_3.atsp
Successes/Runs = 1/0 
Cost.min = -199205, Cost.avg = -199205.00, Cost.max = -199205
Gap.min = -0.0000%, Gap.avg = -0.0000%, Gap.max = -0.0000%
Trials.min = 56, Trials.avg = 56.0, Trials.max = 56
Time.min = 0.00 sec., Time.avg = 0.00 sec., Time.max = 0.00 sec.
Best ATSP solution:
  Cost = 0_-199205

PARAMETER_FILE = /home/jyf/ROS_project/RACER-test/src/RACER-main/swarm_exploration/utils/lkh_mtsp_solver/resource/amtsp2_3.par
PROBLEM_FILE = /home/jyf/ROS_project/RACER-test/src/RACER-main/swarm_exploration/utils/lkh_mtsp_solver/resource/amtsp2_3.atsp
Successes/Runs = 1/0 
Cost.min = -99408, Cost.avg = -99408.00, Cost.max = -99408
Gap.min = -0.0000%, Gap.avg = -0.0000%, Gap.max = -0.0000%
Trials.min = 56, Trials.avg = 56.0, Trials.max = 56
Time.min = 0.01 sec., Time.avg = 0.01 sec., Time.max = 0.01 sec.
Best ATSP solution:
  Cost = 0_-99408

PARAMETER_FILE = /home/jyf/ROS_project/RACER-test/src/RACER-main/swarm_exploration/utils/lkh_mtsp_solver/resource/amtsp_3.par
PROBLEM_FILE = /home/jyf/ROS_project/RACER-test/src/RACER-main/swarm_exploration/utils/lkh_mtsp_solver/resource/amtsp_3.atsp
Successes/Runs = 1/0 
Cost.min = -198933, Cost.avg = -198933.00, Cost.max = -198933
Gap.min = -0.0000%, Gap.avg = -0.0000%, Gap.max = -0.0000%
Trials.min = 56, Trials.avg = 56.0, Trials.max = 56
Time.min = 0.00 sec., Time.avg = 0.00 sec., Time.max = 0.00 sec.
Best ATSP solution:
  Cost = 0_-198933

PARAMETER_FILE = /home/jyf/ROS_project/RACER-test/src/RACER-main/swarm_exploration/utils/lkh_mtsp_solver/resource/amtsp2_3.par
PROBLEM_FILE = /home/jyf/ROS_project/RACER-test/src/RACER-main/swarm_exploration/utils/lkh_mtsp_solver/resource/amtsp2_3.atsp
Successes/Runs = 1/0 
Cost.min = -99167, Cost.avg = -99167.00, Cost.max = -99167
Gap.min = -0.0000%, Gap.avg = -0.0000%, Gap.max = -0.0000%
Trials.min = 56, Trials.avg = 56.0, Trials.max = 56
Time.min = 0.00 sec., Time.avg = 0.00 sec., Time.max = 0.00 sec.
Best ATSP solution:
  Cost = 0_-99167

PARAMETER_FILE = /home/jyf/ROS_project/RACER-test/src/RACER-main/swarm_exploration/utils/lkh_mtsp_solver/resource/amtsp_3.par
PROBLEM_FILE = /home/jyf/ROS_project/RACER-test/src/RACER-main/swarm_exploration/utils/lkh_mtsp_solver/resource/amtsp_3.atsp
Successes/Runs = 1/0 
Cost.min = -199356, Cost.avg = -199356.00, Cost.max = -199356
Gap.min = -0.0000%, Gap.avg = -0.0000%, Gap.max = -0.0000%
Trials.min = 56, Trials.avg = 56.0, Trials.max = 56
Time.min = 0.00 sec., Time.avg = 0.00 sec., Time.max = 0.00 sec.
Best ATSP solution:
  Cost = 0_-199356

PARAMETER_FILE = /home/jyf/ROS_project/RACER-test/src/RACER-main/swarm_exploration/utils/lkh_mtsp_solver/resource/amtsp2_3.par
PROBLEM_FILE = /home/jyf/ROS_project/RACER-test/src/RACER-main/swarm_exploration/utils/lkh_mtsp_solver/resource/amtsp2_3.atsp
Successes/Runs = 1/0 
Cost.min = -100474, Cost.avg = -100474.00, Cost.max = -100474
Gap.min = -0.0000%, Gap.avg = -0.0000%, Gap.max = -0.0000%
Trials.min = 56, Trials.avg = 56.0, Trials.max = 56
Time.min = 0.00 sec., Time.avg = 0.00 sec., Time.max = 0.00 sec.
Best ATSP solution:
  Cost = 0_-100474

PARAMETER_FILE = /home/jyf/ROS_project/RACER-test/src/RACER-main/swarm_exploration/utils/lkh_mtsp_solver/resource/amtsp_3.par
PROBLEM_FILE = /home/jyf/ROS_project/RACER-test/src/RACER-main/swarm_exploration/utils/lkh_mtsp_solver/resource/amtsp_3.atsp
Successes/Runs = 1/0 
Cost.min = -199271, Cost.avg = -199271.00, Cost.max = -199271
Gap.min = -0.0000%, Gap.avg = -0.0000%, Gap.max = -0.0000%
Trials.min = 56, Trials.avg = 56.0, Trials.max = 56
Time.min = 0.00 sec., Time.avg = 0.00 sec., Time.max = 0.00 sec.
Best ATSP solution:
  Cost = 0_-199271

PARAMETER_FILE = /home/jyf/ROS_project/RACER-test/src/RACER-main/swarm_exploration/utils/lkh_mtsp_solver/resource/amtsp2_3.par
PROBLEM_FILE = /home/jyf/ROS_project/RACER-test/src/RACER-main/swarm_exploration/utils/lkh_mtsp_solver/resource/amtsp2_3.atsp
Successes/Runs = 1/0 
Cost.min = -100437, Cost.avg = -100437.00, Cost.max = -100437
Gap.min = -0.0000%, Gap.avg = -0.0000%, Gap.max = -0.0000%
Trials.min = 56, Trials.avg = 56.0, Trials.max = 56
Time.min = 0.00 sec., Time.avg = 0.00 sec., Time.max = 0.00 sec.
Best ATSP solution:
  Cost = 0_-100437

PARAMETER_FILE = /home/jyf/ROS_project/RACER-test/src/RACER-main/swarm_exploration/utils/lkh_mtsp_solver/resource/amtsp_3.par
PROBLEM_FILE = /home/jyf/ROS_project/RACER-test/src/RACER-main/swarm_exploration/utils/lkh_mtsp_solver/resource/amtsp_3.atsp
Successes/Runs = 1/0 
Cost.min = -199315, Cost.avg = -199315.00, Cost.max = -199315
Gap.min = -0.0000%, Gap.avg = -0.0000%, Gap.max = -0.0000%
Trials.min = 56, Trials.avg = 56.0, Trials.max = 56
Time.min = 0.00 sec., Time.avg = 0.00 sec., Time.max = 0.00 sec.
Best ATSP solution:
  Cost = 0_-199315

PARAMETER_FILE = /home/jyf/ROS_project/RACER-test/src/RACER-main/swarm_exploration/utils/lkh_mtsp_solver/resource/amtsp2_3.par
PROBLEM_FILE = /home/jyf/ROS_project/RACER-test/src/RACER-main/swarm_exploration/utils/lkh_mtsp_solver/resource/amtsp2_3.atsp
Successes/Runs = 1/0 
Cost.min = -101892, Cost.avg = -101892.00, Cost.max = -101892
Gap.min = -0.0000%, Gap.avg = -0.0000%, Gap.max = -0.0000%
Trials.min = 56, Trials.avg = 56.0, Trials.max = 56
Time.min = 0.00 sec., Time.avg = 0.00 sec., Time.max = 0.00 sec.
Best ATSP solution:
  Cost = 0_-101892

PARAMETER_FILE = /home/jyf/ROS_project/RACER-test/src/RACER-main/swarm_exploration/utils/lkh_mtsp_solver/resource/amtsp_3.par
PROBLEM_FILE = /home/jyf/ROS_project/RACER-test/src/RACER-main/swarm_exploration/utils/lkh_mtsp_solver/resource/amtsp_3.atsp
Successes/Runs = 1/0 
Cost.min = -199416, Cost.avg = -199416.00, Cost.max = -199416
Gap.min = -0.0000%, Gap.avg = -0.0000%, Gap.max = -0.0000%
Trials.min = 56, Trials.avg = 56.0, Trials.max = 56
Time.min = 0.00 sec., Time.avg = 0.00 sec., Time.max = 0.00 sec.
Best ATSP solution:
  Cost = 0_-199416

PARAMETER_FILE = /home/jyf/ROS_project/RACER-test/src/RACER-main/swarm_exploration/utils/lkh_mtsp_solver/resource/amtsp2_3.par
PROBLEM_FILE = /home/jyf/ROS_project/RACER-test/src/RACER-main/swarm_exploration/utils/lkh_mtsp_solver/resource/amtsp2_3.atsp
Successes/Runs = 1/0 
Cost.min = -101879, Cost.avg = -101879.00, Cost.max = -101879
Gap.min = -0.0000%, Gap.avg = -0.0000%, Gap.max = -0.0000%
Trials.min = 56, Trials.avg = 56.0, Trials.max = 56
Time.min = 0.00 sec., Time.avg = 0.00 sec., Time.max = 0.00 sec.
Best ATSP solution:
  Cost = 0_-101879

PARAMETER_FILE = /home/jyf/ROS_project/RACER-test/src/RACER-main/swarm_exploration/utils/lkh_mtsp_solver/resource/amtsp_3.par
PROBLEM_FILE = /home/jyf/ROS_project/RACER-test/src/RACER-main/swarm_exploration/utils/lkh_mtsp_solver/resource/amtsp_3.atsp
Successes/Runs = 1/0 
Cost.min = -199461, Cost.avg = -199461.00, Cost.max = -199461
Gap.min = -0.0000%, Gap.avg = -0.0000%, Gap.max = -0.0000%
Trials.min = 56, Trials.avg = 56.0, Trials.max = 56
Time.min = 0.00 sec., Time.avg = 0.00 sec., Time.max = 0.00 sec.
Best ATSP solution:
  Cost = 0_-199461

